nK = 1214;
nT = 6;
nI = 14;
L = 29;
TT = 316;
np = 1;
nc = 3;
b = [21, 41, 70, 66, 26, 66, 57, 63, 68, 31, 54, 61, 47, 35];
d = [55, 111, 131, 115, 101, 100, 135, 130, 109, 120, 118, 107, 127, 69];
m = [2.1, 1.9, 2.2, 1.3, 2.4, 1.3, 2.5, 2, 1, 1.1, 2.5, 1.6, 1.1, 2.3];
pt = [0.32, 0.35, 0.25, 0.31, 0.32, 0.25];
st = [17.92, 19.6, 14, 17.67, 15.68, 12.5];
arc = {<1, 0, 1, 1, 0, 0, 0, [1, 1, 1, 1, 1, 1]>, <2, 1, 2, 1, 0, 0, 0, [1, 1, 1, 1, 1, 1]>, <3, 2, 3, 1, 0, 0, 0, [1, 1, 1, 1, 1, 1]>, <4, 3, 4, 1, 0, 0, 0, [1, 1, 1, 1, 1, 1]>, <5, 4, 5, 1, 0, 0, 0, [1, 1, 1, 1, 1, 1]>, <6, 5, 6, 1, 0, 0, 0, [1, 1, 1, 1, 1, 1]>, <7, 6, 7, 1, 0, 0, 0, [1, 1, 1, 1, 1, 1]>, <8, 7, 8, 1, 0, 0, 0, [1, 1, 1, 1, 1, 1]>, <9, 8, 9, 1, 0, 0, 0, [1, 1, 1, 1, 1, 1]>, <10, 9, 10, 1, 0, 0, 0, [1, 1, 1, 1, 1, 1]>, <11, 10, 11, 1, 0, 0, 0, [1, 1, 1, 1, 1, 1]>, <12, 11, 12, 1, 0, 0, 0, [1, 1, 1, 1, 1, 1]>, <13, 12, 13, 1, 0, 0, 0, [1, 1, 1, 1, 1, 1]>, <14, 13, 14, 1, 0, 0, 0, [1, 1, 1, 1, 1, 1]>, <15, 14, 15, 1, 0, 0, 0, [1, 1, 1, 1, 1, 1]>, <16, 15, 16, 1, 0, 0, 0, [1, 1, 1, 1, 1, 1]>, <17, 16, 17, 1, 0, 0, 0, [1, 1, 1, 1, 1, 1]>, <18, 17, 18, 1, 0, 0, 0, [1, 1, 1, 1, 1, 1]>, <19, 18, 19, 1, 0, 0, 0, [1, 1, 1, 1, 1, 1]>, <20, 19, 20, 1, 0, 0, 0, [1, 1, 1, 1, 1, 1]>, <21, 20, 21, 1, 0, 0, 0, [1, 1, 1, 1, 1, 1]>, <22, 21, 22, 1, 0, 0, 0, [1, 1, 1, 1, 1, 1]>, <23, 22, 23, 1, 0, 0, 0, [1, 1, 1, 1, 1, 1]>, <24, 23, 24, 1, 0, 0, 0, [1, 1, 1, 1, 1, 1]>, <25, 24, 25, 1, 0, 0, 0, [1, 1, 1, 1, 1, 1]>, <26, 25, 26, 1, 0, 0, 0, [1, 1, 1, 1, 1, 1]>, <27, 26, 27, 1, 0, 0, 0, [1, 1, 1, 1, 1, 1]>, <28, 27, 28, 1, 0, 0, 0, [1, 1, 1, 1, 1, 1]>, <29, 28, 29, 1, 0, 0, 0, [1, 1, 1, 1, 1, 1]>, <30, 0, 14, 14, 1, 0, 0, [0, 0, 0, 1, 1, 0]>, <31, 1, 15, 14, 1, 0, 0, [0, 0, 0, 1, 1, 0]>, <32, 2, 16, 14, 1, 0, 0, [0, 0, 0, 1, 1, 0]>, <33, 3, 17, 14, 1, 0, 0, [0, 0, 0, 1, 1, 0]>, <34, 4, 18, 14, 1, 0, 0, [0, 0, 0, 1, 1, 0]>, <35, 5, 19, 14, 1, 0, 0, [0, 0, 0, 1, 1, 0]>, <36, 6, 20, 14, 1, 0, 0, [0, 0, 0, 1, 1, 0]>, <37, 7, 21, 14, 1, 0, 0, [0, 0, 0, 1, 1, 0]>, <38, 8, 22, 14, 1, 0, 0, [0, 0, 0, 1, 1, 0]>, <39, 9, 23, 14, 1, 0, 0, [0, 0, 0, 1, 1, 0]>, <40, 10, 24, 14, 1, 0, 0, [0, 0, 0, 1, 1, 0]>, <41, 11, 25, 14, 1, 0, 0, [0, 0, 0, 1, 1, 0]>, <42, 12, 26, 14, 1, 0, 0, [0, 0, 0, 1, 1, 0]>, <43, 13, 27, 14, 1, 0, 0, [0, 0, 0, 1, 1, 0]>, <44, 14, 28, 14, 1, 0, 0, [0, 0, 0, 1, 1, 0]>, <45, 15, 29, 14, 1, 0, 0, [0, 0, 0, 1, 1, 0]>, <46, 0, 13, 13, 2, 0, 0, [1, 0, 0, 0, 0, 1]>, <47, 1, 14, 13, 2, 0, 0, [1, 0, 0, 0, 0, 1]>, <48, 2, 15, 13, 2, 0, 0, [1, 0, 0, 0, 0, 1]>, <49, 3, 16, 13, 2, 0, 0, [1, 0, 0, 0, 0, 1]>, <50, 4, 17, 13, 2, 0, 0, [1, 0, 0, 0, 0, 1]>, <51, 5, 18, 13, 2, 0, 0, [1, 0, 0, 0, 0, 1]>, <52, 7, 20, 13, 2, 0, 0, [1, 0, 0, 0, 0, 1]>, <53, 8, 21, 13, 2, 0, 0, [1, 0, 0, 0, 0, 1]>, <54, 9, 22, 13, 2, 0, 0, [1, 0, 0, 0, 0, 1]>, <55, 10, 23, 13, 2, 0, 0, [1, 0, 0, 0, 0, 1]>, <56, 11, 24, 13, 2, 0, 0, [1, 0, 0, 0, 0, 1]>, <57, 12, 25, 13, 2, 0, 0, [1, 0, 0, 0, 0, 1]>, <58, 13, 26, 13, 2, 0, 0, [1, 0, 0, 0, 0, 1]>, <59, 14, 27, 13, 2, 0, 0, [1, 0, 0, 0, 0, 1]>, <60, 15, 28, 13, 2, 0, 0, [1, 0, 0, 0, 0, 1]>, <61, 16, 29, 13, 2, 0, 0, [1, 0, 0, 0, 0, 1]>, <62, 2, 12, 10, 3, 0, 1, [0, 0, 1, 1, 0, 0]>, <63, 3, 13, 10, 3, 0, 1, [0, 0, 1, 1, 0, 0]>, <64, 4, 14, 10, 3, 0, 1, [0, 0, 1, 1, 0, 0]>, <65, 5, 15, 10, 3, 0, 1, [0, 0, 1, 1, 0, 0]>, <66, 10, 20, 10, 3, 0, 1, [0, 0, 1, 1, 0, 0]>, <67, 11, 21, 10, 3, 0, 1, [0, 0, 1, 1, 0, 0]>, <68, 12, 22, 10, 3, 0, 1, [0, 0, 1, 1, 0, 0]>, <69, 14, 24, 10, 3, 0, 1, [0, 0, 1, 1, 0, 0]>, <70, 15, 25, 10, 3, 0, 1, [0, 0, 1, 1, 0, 0]>, <71, 16, 26, 10, 3, 0, 1, [0, 0, 1, 1, 0, 0]>, <72, 17, 27, 10, 3, 0, 1, [0, 0, 1, 1, 0, 0]>, <73, 18, 28, 10, 3, 0, 1, [0, 0, 1, 1, 0, 0]>, <74, 19, 29, 10, 3, 0, 1, [0, 0, 1, 1, 0, 0]>, <75, 0, 15, 15, 4, 0, 1, [1, 0, 0, 0, 0, 1]>, <76, 1, 16, 15, 4, 0, 1, [1, 0, 0, 0, 0, 1]>, <77, 2, 17, 15, 4, 0, 1, [1, 0, 0, 0, 0, 1]>, <78, 3, 18, 15, 4, 0, 1, [1, 0, 0, 0, 0, 1]>, <79, 4, 19, 15, 4, 0, 1, [1, 0, 0, 0, 0, 1]>, <80, 5, 20, 15, 4, 0, 1, [1, 0, 0, 0, 0, 1]>, <81, 6, 21, 15, 4, 0, 1, [1, 0, 0, 0, 0, 1]>, <82, 7, 22, 15, 4, 0, 1, [1, 0, 0, 0, 0, 1]>, <83, 8, 23, 15, 4, 0, 1, [1, 0, 0, 0, 0, 1]>, <84, 9, 24, 15, 4, 0, 1, [1, 0, 0, 0, 0, 1]>, <85, 10, 25, 15, 4, 0, 1, [1, 0, 0, 0, 0, 1]>, <86, 11, 26, 15, 4, 0, 1, [1, 0, 0, 0, 0, 1]>, <87, 12, 27, 15, 4, 0, 1, [1, 0, 0, 0, 0, 1]>, <88, 13, 28, 15, 4, 0, 1, [1, 0, 0, 0, 0, 1]>, <89, 14, 29, 15, 4, 0, 1, [1, 0, 0, 0, 0, 1]>, <90, 0, 14, 14, 5, 0, 0, [1, 0, 0, 0, 0, 1]>, <91, 1, 15, 14, 5, 0, 0, [1, 0, 0, 0, 0, 1]>, <92, 2, 16, 14, 5, 0, 0, [1, 0, 0, 0, 0, 1]>, <93, 3, 17, 14, 5, 0, 0, [1, 0, 0, 0, 0, 1]>, <94, 4, 18, 14, 5, 0, 0, [1, 0, 0, 0, 0, 1]>, <95, 5, 19, 14, 5, 0, 0, [1, 0, 0, 0, 0, 1]>, <96, 6, 20, 14, 5, 0, 0, [1, 0, 0, 0, 0, 1]>, <97, 7, 21, 14, 5, 0, 0, [1, 0, 0, 0, 0, 1]>, <98, 8, 22, 14, 5, 0, 0, [1, 0, 0, 0, 0, 1]>, <99, 9, 23, 14, 5, 0, 0, [1, 0, 0, 0, 0, 1]>, <100, 10, 24, 14, 5, 0, 0, [1, 0, 0, 0, 0, 1]>, <101, 11, 25, 14, 5, 0, 0, [1, 0, 0, 0, 0, 1]>, <102, 12, 26, 14, 5, 0, 0, [1, 0, 0, 0, 0, 1]>, <103, 13, 27, 14, 5, 0, 0, [1, 0, 0, 0, 0, 1]>, <104, 14, 28, 14, 5, 0, 0, [1, 0, 0, 0, 0, 1]>, <105, 15, 29, 14, 5, 0, 0, [1, 0, 0, 0, 0, 1]>, <106, 0, 12, 12, 6, 0, 0, [0, 1, 1, 0, 0, 0]>, <107, 1, 13, 12, 6, 0, 0, [0, 1, 1, 0, 0, 0]>, <108, 2, 14, 12, 6, 0, 0, [0, 1, 1, 0, 0, 0]>, <109, 3, 15, 12, 6, 0, 0, [0, 1, 1, 0, 0, 0]>, <110, 4, 16, 12, 6, 0, 0, [0, 1, 1, 0, 0, 0]>, <111, 5, 17, 12, 6, 0, 0, [0, 1, 1, 0, 0, 0]>, <112, 8, 20, 12, 6, 0, 0, [0, 1, 1, 0, 0, 0]>, <113, 9, 21, 12, 6, 0, 0, [0, 1, 1, 0, 0, 0]>, <114, 10, 22, 12, 6, 0, 0, [0, 1, 1, 0, 0, 0]>, <115, 11, 23, 12, 6, 0, 0, [0, 1, 1, 0, 0, 0]>, <116, 12, 24, 12, 6, 0, 0, [0, 1, 1, 0, 0, 0]>, <117, 13, 25, 12, 6, 0, 0, [0, 1, 1, 0, 0, 0]>, <118, 14, 26, 12, 6, 0, 0, [0, 1, 1, 0, 0, 0]>, <119, 15, 27, 12, 6, 0, 0, [0, 1, 1, 0, 0, 0]>, <120, 16, 28, 12, 6, 0, 0, [0, 1, 1, 0, 0, 0]>, <121, 17, 29, 12, 6, 0, 0, [0, 1, 1, 0, 0, 0]>, <122, 0, 14, 14, 7, 0, 0, [0, 0, 1, 1, 0, 0]>, <123, 1, 15, 14, 7, 0, 0, [0, 0, 1, 1, 0, 0]>, <124, 2, 16, 14, 7, 0, 0, [0, 0, 1, 1, 0, 0]>, <125, 3, 17, 14, 7, 0, 0, [0, 0, 1, 1, 0, 0]>, <126, 4, 18, 14, 7, 0, 0, [0, 0, 1, 1, 0, 0]>, <127, 5, 19, 14, 7, 0, 0, [0, 0, 1, 1, 0, 0]>, <128, 6, 20, 14, 7, 0, 0, [0, 0, 1, 1, 0, 0]>, <129, 7, 21, 14, 7, 0, 0, [0, 0, 1, 1, 0, 0]>, <130, 8, 22, 14, 7, 0, 0, [0, 0, 1, 1, 0, 0]>, <131, 9, 23, 14, 7, 0, 0, [0, 0, 1, 1, 0, 0]>, <132, 10, 24, 14, 7, 0, 0, [0, 0, 1, 1, 0, 0]>, <133, 11, 25, 14, 7, 0, 0, [0, 0, 1, 1, 0, 0]>, <134, 12, 26, 14, 7, 0, 0, [0, 0, 1, 1, 0, 0]>, <135, 13, 27, 14, 7, 0, 0, [0, 0, 1, 1, 0, 0]>, <136, 14, 28, 14, 7, 0, 0, [0, 0, 1, 1, 0, 0]>, <137, 15, 29, 14, 7, 0, 0, [0, 0, 1, 1, 0, 0]>, <138, 2, 12, 10, 8, 0, 0, [0, 1, 1, 0, 0, 0]>, <139, 3, 13, 10, 8, 0, 0, [0, 1, 1, 0, 0, 0]>, <140, 4, 14, 10, 8, 0, 0, [0, 1, 1, 0, 0, 0]>, <141, 5, 15, 10, 8, 0, 0, [0, 1, 1, 0, 0, 0]>, <142, 10, 20, 10, 8, 0, 0, [0, 1, 1, 0, 0, 0]>, <143, 11, 21, 10, 8, 0, 0, [0, 1, 1, 0, 0, 0]>, <144, 12, 22, 10, 8, 0, 0, [0, 1, 1, 0, 0, 0]>, <145, 14, 24, 10, 8, 0, 0, [0, 1, 1, 0, 0, 0]>, <146, 15, 25, 10, 8, 0, 0, [0, 1, 1, 0, 0, 0]>, <147, 16, 26, 10, 8, 0, 0, [0, 1, 1, 0, 0, 0]>, <148, 17, 27, 10, 8, 0, 0, [0, 1, 1, 0, 0, 0]>, <149, 18, 28, 10, 8, 0, 0, [0, 1, 1, 0, 0, 0]>, <150, 19, 29, 10, 8, 0, 0, [0, 1, 1, 0, 0, 0]>, <151, 0, 14, 14, 9, 0, 0, [1, 0, 0, 0, 0, 1]>, <152, 1, 15, 14, 9, 0, 0, [1, 0, 0, 0, 0, 1]>, <153, 2, 16, 14, 9, 0, 0, [1, 0, 0, 0, 0, 1]>, <154, 3, 17, 14, 9, 0, 0, [1, 0, 0, 0, 0, 1]>, <155, 4, 18, 14, 9, 0, 0, [1, 0, 0, 0, 0, 1]>, <156, 5, 19, 14, 9, 0, 0, [1, 0, 0, 0, 0, 1]>, <157, 6, 20, 14, 9, 0, 0, [1, 0, 0, 0, 0, 1]>, <158, 7, 21, 14, 9, 0, 0, [1, 0, 0, 0, 0, 1]>, <159, 8, 22, 14, 9, 0, 0, [1, 0, 0, 0, 0, 1]>, <160, 9, 23, 14, 9, 0, 0, [1, 0, 0, 0, 0, 1]>, <161, 10, 24, 14, 9, 0, 0, [1, 0, 0, 0, 0, 1]>, <162, 11, 25, 14, 9, 0, 0, [1, 0, 0, 0, 0, 1]>, <163, 12, 26, 14, 9, 0, 0, [1, 0, 0, 0, 0, 1]>, <164, 13, 27, 14, 9, 0, 0, [1, 0, 0, 0, 0, 1]>, <165, 14, 28, 14, 9, 0, 0, [1, 0, 0, 0, 0, 1]>, <166, 15, 29, 14, 9, 0, 0, [1, 0, 0, 0, 0, 1]>, <167, 0, 14, 14, 10, 0, 1, [0, 0, 0, 1, 1, 0]>, <168, 1, 15, 14, 10, 0, 1, [0, 0, 0, 1, 1, 0]>, <169, 2, 16, 14, 10, 0, 1, [0, 0, 0, 1, 1, 0]>, <170, 3, 17, 14, 10, 0, 1, [0, 0, 0, 1, 1, 0]>, <171, 4, 18, 14, 10, 0, 1, [0, 0, 0, 1, 1, 0]>, <172, 5, 19, 14, 10, 0, 1, [0, 0, 0, 1, 1, 0]>, <173, 6, 20, 14, 10, 0, 1, [0, 0, 0, 1, 1, 0]>, <174, 7, 21, 14, 10, 0, 1, [0, 0, 0, 1, 1, 0]>, <175, 8, 22, 14, 10, 0, 1, [0, 0, 0, 1, 1, 0]>, <176, 9, 23, 14, 10, 0, 1, [0, 0, 0, 1, 1, 0]>, <177, 10, 24, 14, 10, 0, 1, [0, 0, 0, 1, 1, 0]>, <178, 11, 25, 14, 10, 0, 1, [0, 0, 0, 1, 1, 0]>, <179, 12, 26, 14, 10, 0, 1, [0, 0, 0, 1, 1, 0]>, <180, 13, 27, 14, 10, 0, 1, [0, 0, 0, 1, 1, 0]>, <181, 14, 28, 14, 10, 0, 1, [0, 0, 0, 1, 1, 0]>, <182, 15, 29, 14, 10, 0, 1, [0, 0, 0, 1, 1, 0]>, <183, 2, 12, 10, 11, 0, 1, [0, 0, 0, 1, 1, 0]>, <184, 3, 13, 10, 11, 0, 1, [0, 0, 0, 1, 1, 0]>, <185, 4, 14, 10, 11, 0, 1, [0, 0, 0, 1, 1, 0]>, <186, 5, 15, 10, 11, 0, 1, [0, 0, 0, 1, 1, 0]>, <187, 10, 20, 10, 11, 0, 1, [0, 0, 0, 1, 1, 0]>, <188, 11, 21, 10, 11, 0, 1, [0, 0, 0, 1, 1, 0]>, <189, 12, 22, 10, 11, 0, 1, [0, 0, 0, 1, 1, 0]>, <190, 14, 24, 10, 11, 0, 1, [0, 0, 0, 1, 1, 0]>, <191, 15, 25, 10, 11, 0, 1, [0, 0, 0, 1, 1, 0]>, <192, 16, 26, 10, 11, 0, 1, [0, 0, 0, 1, 1, 0]>, <193, 17, 27, 10, 11, 0, 1, [0, 0, 0, 1, 1, 0]>, <194, 18, 28, 10, 11, 0, 1, [0, 0, 0, 1, 1, 0]>, <195, 19, 29, 10, 11, 0, 1, [0, 0, 0, 1, 1, 0]>, <196, 0, 13, 13, 12, 0, 1, [1, 1, 0, 0, 0, 0]>, <197, 1, 14, 13, 12, 0, 1, [1, 1, 0, 0, 0, 0]>, <198, 2, 15, 13, 12, 0, 1, [1, 1, 0, 0, 0, 0]>, <199, 3, 16, 13, 12, 0, 1, [1, 1, 0, 0, 0, 0]>, <200, 4, 17, 13, 12, 0, 1, [1, 1, 0, 0, 0, 0]>, <201, 5, 18, 13, 12, 0, 1, [1, 1, 0, 0, 0, 0]>, <202, 7, 20, 13, 12, 0, 1, [1, 1, 0, 0, 0, 0]>, <203, 8, 21, 13, 12, 0, 1, [1, 1, 0, 0, 0, 0]>, <204, 9, 22, 13, 12, 0, 1, [1, 1, 0, 0, 0, 0]>, <205, 10, 23, 13, 12, 0, 1, [1, 1, 0, 0, 0, 0]>, <206, 11, 24, 13, 12, 0, 1, [1, 1, 0, 0, 0, 0]>, <207, 12, 25, 13, 12, 0, 1, [1, 1, 0, 0, 0, 0]>, <208, 13, 26, 13, 12, 0, 1, [1, 1, 0, 0, 0, 0]>, <209, 14, 27, 13, 12, 0, 1, [1, 1, 0, 0, 0, 0]>, <210, 15, 28, 13, 12, 0, 1, [1, 1, 0, 0, 0, 0]>, <211, 16, 29, 13, 12, 0, 1, [1, 1, 0, 0, 0, 0]>, <212, 0, 12, 12, 13, 0, 1, [1, 0, 0, 0, 0, 1]>, <213, 1, 13, 12, 13, 0, 1, [1, 0, 0, 0, 0, 1]>, <214, 2, 14, 12, 13, 0, 1, [1, 0, 0, 0, 0, 1]>, <215, 3, 15, 12, 13, 0, 1, [1, 0, 0, 0, 0, 1]>, <216, 4, 16, 12, 13, 0, 1, [1, 0, 0, 0, 0, 1]>, <217, 5, 17, 12, 13, 0, 1, [1, 0, 0, 0, 0, 1]>, <218, 8, 20, 12, 13, 0, 1, [1, 0, 0, 0, 0, 1]>, <219, 9, 21, 12, 13, 0, 1, [1, 0, 0, 0, 0, 1]>, <220, 10, 22, 12, 13, 0, 1, [1, 0, 0, 0, 0, 1]>, <221, 11, 23, 12, 13, 0, 1, [1, 0, 0, 0, 0, 1]>, <222, 12, 24, 12, 13, 0, 1, [1, 0, 0, 0, 0, 1]>, <223, 13, 25, 12, 13, 0, 1, [1, 0, 0, 0, 0, 1]>, <224, 14, 26, 12, 13, 0, 1, [1, 0, 0, 0, 0, 1]>, <225, 15, 27, 12, 13, 0, 1, [1, 0, 0, 0, 0, 1]>, <226, 16, 28, 12, 13, 0, 1, [1, 0, 0, 0, 0, 1]>, <227, 17, 29, 12, 13, 0, 1, [1, 0, 0, 0, 0, 1]>, <228, 2, 12, 10, 14, 1, 0, [0, 1, 1, 0, 0, 0]>, <229, 3, 13, 10, 14, 1, 0, [0, 1, 1, 0, 0, 0]>, <230, 4, 14, 10, 14, 1, 0, [0, 1, 1, 0, 0, 0]>, <231, 5, 15, 10, 14, 1, 0, [0, 1, 1, 0, 0, 0]>, <232, 10, 20, 10, 14, 1, 0, [0, 1, 1, 0, 0, 0]>, <233, 11, 21, 10, 14, 1, 0, [0, 1, 1, 0, 0, 0]>, <234, 12, 22, 10, 14, 1, 0, [0, 1, 1, 0, 0, 0]>, <235, 14, 24, 10, 14, 1, 0, [0, 1, 1, 0, 0, 0]>, <236, 15, 25, 10, 14, 1, 0, [0, 1, 1, 0, 0, 0]>, <237, 16, 26, 10, 14, 1, 0, [0, 1, 1, 0, 0, 0]>, <238, 17, 27, 10, 14, 1, 0, [0, 1, 1, 0, 0, 0]>, <239, 18, 28, 10, 14, 1, 0, [0, 1, 1, 0, 0, 0]>, <240, 19, 29, 10, 14, 1, 0, [0, 1, 1, 0, 0, 0]>};
